c description: Random 2-CNF over 15 variables and 80 clauses
c generator: CNFgen (0.9.0)
c copyright: (C) 2012-2020 Massimo Lauria <massimo.lauria@uniroma1.it>
c url: https://massimolauria.net/cnfgen
c
p cnf 15 80
-9 13 0
3 -7 0
7 -13 0
9 -13 0
-9 -12 0
3 10 0
2 12 0
2 11 0
4 8 0
4 13 0
-5 -7 0
-8 10 0
4 7 0
-1 -9 0
-2 6 0
2 8 0
-2 -13 0
2 -15 0
11 14 0
-13 -15 0
7 9 0
5 -6 0
-9 10 0
10 15 0
-8 -11 0
-11 -12 0
-1 5 0
7 15 0
-6 -14 0
-8 13 0
4 10 0
5 -9 0
4 -15 0
9 10 0
1 -5 0
4 11 0
8 12 0
-4 5 0
-7 -10 0
7 13 0
4 -14 0
8 -9 0
3 12 0
7 10 0
-8 -12 0
5 6 0
1 -2 0
6 -13 0
-12 -13 0
-1 7 0
-2 9 0
1 -9 0
-4 10 0
-10 -14 0
-8 12 0
-2 14 0
-5 -14 0
-5 6 0
-2 15 0
8 -14 0
-5 -6 0
-7 8 0
-2 -6 0
-2 4 0
1 -4 0
6 -12 0
6 11 0
-1 6 0
-6 11 0
-12 -15 0
-1 -5 0
10 -13 0
11 -12 0
-1 9 0
14 15 0
-3 -5 0
-11 15 0
12 13 0
3 -8 0
-4 14 0